(set-info :smt-lib-version 2.6)
(set-logic QF_NIA)
(set-info :source |
Generated by: Cristina Borralleras, Daniel Larraz, Albert Oliveras, Enric Rodriguez-Carbonell, Albert Rubio
Generated on: 2017-04-27
Generator: VeryMax
Application: Termination proving
Target solver: barcelogic
|)
(set-info :license "https://creativecommons.org/licenses/by/4.0/")
(set-info :category "industrial")
(set-info :status unknown)
(declare-fun Nl4arg11 () Int)
(declare-fun Nl4arg21 () Int)
(declare-fun Nl4arg31 () Int)
(declare-fun Nl4arg41 () Int)
(declare-fun lam0n0 () Int)
(declare-fun lam0n1 () Int)
(declare-fun lam0n2 () Int)
(declare-fun lam0n3 () Int)
(declare-fun lam0n4 () Int)
(declare-fun lam0n5 () Int)
(declare-fun UndefCntr0_CT () Int)
(declare-fun Nl4CT1 () Int)
(declare-fun UndefCntr0_arg1 () Int)
(declare-fun UndefCntr0_arg2 () Int)
(declare-fun UndefCntr0_arg3 () Int)
(declare-fun UndefCntr0_arg4 () Int)
(declare-fun UndefCntr0_undef31 () Int)
(declare-fun UndefCntr0_undef32 () Int)
(declare-fun UndefCntr0_undef33 () Int)
(declare-fun UndefCntr0_undef34 () Int)
(declare-fun UndefCntr0_undef35 () Int)
(declare-fun lam1n0 () Int)
(declare-fun lam1n1 () Int)
(declare-fun lam1n2 () Int)
(declare-fun lam1n3 () Int)
(declare-fun lam1n4 () Int)
(declare-fun lam1n5 () Int)
(declare-fun lam2n0 () Int)
(declare-fun lam2n1 () Int)
(declare-fun lam2n2 () Int)
(declare-fun lam2n3 () Int)
(declare-fun lam2n4 () Int)
(declare-fun lam2n5 () Int)
(declare-fun UndefCntr1_CT () Int)
(declare-fun UndefCntr1_arg1 () Int)
(declare-fun UndefCntr1_arg2 () Int)
(declare-fun UndefCntr1_arg3 () Int)
(declare-fun UndefCntr1_arg4 () Int)
(declare-fun UndefCntr1_undef36 () Int)
(declare-fun UndefCntr1_undef37 () Int)
(declare-fun UndefCntr1_undef38 () Int)
(declare-fun UndefCntr1_undef39 () Int)
(declare-fun UndefCntr1_undef40 () Int)
(declare-fun lam3n0 () Int)
(declare-fun lam3n1 () Int)
(declare-fun lam3n2 () Int)
(declare-fun lam3n3 () Int)
(declare-fun lam3n4 () Int)
(declare-fun lam3n5 () Int)
(declare-fun lam4n0 () Int)
(declare-fun lam4n1 () Int)
(declare-fun lam4n2 () Int)
(declare-fun lam4n3 () Int)
(declare-fun lam4n4 () Int)
(declare-fun lam4n5 () Int)
(declare-fun UndefCntr2_CT () Int)
(declare-fun UndefCntr2_arg1 () Int)
(declare-fun UndefCntr2_arg2 () Int)
(declare-fun UndefCntr2_arg3 () Int)
(declare-fun UndefCntr2_arg4 () Int)
(declare-fun UndefCntr2_undef41 () Int)
(declare-fun UndefCntr2_undef42 () Int)
(declare-fun UndefCntr2_undef43 () Int)
(declare-fun UndefCntr2_undef44 () Int)
(declare-fun UndefCntr2_undef45 () Int)
(declare-fun lam5n0 () Int)
(declare-fun lam5n1 () Int)
(declare-fun lam5n2 () Int)
(declare-fun lam5n3 () Int)
(declare-fun lam5n4 () Int)
(declare-fun lam5n5 () Int)
(declare-fun lam6n0 () Int)
(declare-fun lam6n1 () Int)
(declare-fun lam6n2 () Int)
(declare-fun lam6n3 () Int)
(declare-fun lam6n4 () Int)
(declare-fun lam6n5 () Int)
(declare-fun lam6n6 () Int)
(declare-fun lam6n7 () Int)
(declare-fun undef5 () Int)
(declare-fun undef13 () Int)
(declare-fun undef14 () Int)
(declare-fun undef46 () Int)
(declare-fun undef6 () Int)
(declare-fun undef9 () Int)
(declare-fun undef10 () Int)
(declare-fun undef11 () Int)
(declare-fun undef12 () Int)
(declare-fun FV_arg1_3 () Int)
(declare-fun FV_arg2_3 () Int)
(declare-fun FV_arg3_3 () Int)
(declare-fun FV_arg4_3 () Int)
(declare-fun lam7n0 () Int)
(declare-fun lam7n1 () Int)
(declare-fun lam7n2 () Int)
(declare-fun lam8n0 () Int)
(declare-fun lam8n1 () Int)
(declare-fun lam8n2 () Int)
(declare-fun UndefDef0undef31_CT () Int)
(declare-fun UndefDef0undef31_arg1 () Int)
(declare-fun UndefDef0undef31_arg2 () Int)
(declare-fun UndefDef0undef31_arg3 () Int)
(declare-fun UndefDef0undef31_arg4 () Int)
(declare-fun lam9n0 () Int)
(declare-fun lam9n1 () Int)
(declare-fun lam9n2 () Int)
(declare-fun lam10n0 () Int)
(declare-fun lam10n1 () Int)
(declare-fun lam10n2 () Int)
(declare-fun lam11n0 () Int)
(declare-fun lam11n1 () Int)
(declare-fun lam11n2 () Int)
(declare-fun lam12n0 () Int)
(declare-fun lam12n1 () Int)
(declare-fun lam12n2 () Int)
(declare-fun UndefDef1undef36_CT () Int)
(declare-fun UndefDef1undef36_arg1 () Int)
(declare-fun UndefDef1undef36_arg2 () Int)
(declare-fun UndefDef1undef36_arg3 () Int)
(declare-fun UndefDef1undef36_arg4 () Int)
(declare-fun lam13n0 () Int)
(declare-fun lam13n1 () Int)
(declare-fun lam13n2 () Int)
(declare-fun lam14n0 () Int)
(declare-fun lam14n1 () Int)
(declare-fun lam14n2 () Int)
(declare-fun lam15n0 () Int)
(declare-fun lam15n1 () Int)
(declare-fun lam15n2 () Int)
(declare-fun lam16n0 () Int)
(declare-fun lam16n1 () Int)
(declare-fun lam16n2 () Int)
(declare-fun UndefDef2undef41_CT () Int)
(declare-fun UndefDef2undef41_arg1 () Int)
(declare-fun UndefDef2undef41_arg2 () Int)
(declare-fun UndefDef2undef41_arg3 () Int)
(declare-fun UndefDef2undef41_arg4 () Int)
(declare-fun lam17n0 () Int)
(declare-fun lam17n1 () Int)
(declare-fun lam17n2 () Int)
(declare-fun lam18n0 () Int)
(declare-fun lam18n1 () Int)
(declare-fun lam18n2 () Int)
(declare-fun FV_undef35_0 () Int)
(declare-fun FV_arg1_0 () Int)
(declare-fun FV_arg2_0 () Int)
(declare-fun FV_arg3_0 () Int)
(declare-fun FV_arg4_0 () Int)
(declare-fun FV_undef31_0 () Int)
(declare-fun FV_undef32_0 () Int)
(declare-fun FV_undef33_0 () Int)
(declare-fun FV_undef34_0 () Int)
(declare-fun FV_undef40_1 () Int)
(declare-fun FV_arg1_1 () Int)
(declare-fun FV_arg2_1 () Int)
(declare-fun FV_arg3_1 () Int)
(declare-fun FV_arg4_1 () Int)
(declare-fun FV_undef36_1 () Int)
(declare-fun FV_undef37_1 () Int)
(declare-fun FV_undef38_1 () Int)
(declare-fun FV_undef39_1 () Int)
(declare-fun FV_undef45_2 () Int)
(declare-fun FV_arg1_2 () Int)
(declare-fun FV_arg2_2 () Int)
(declare-fun FV_arg3_2 () Int)
(declare-fun FV_arg4_2 () Int)
(declare-fun FV_undef41_2 () Int)
(declare-fun FV_undef42_2 () Int)
(declare-fun FV_undef43_2 () Int)
(declare-fun FV_undef44_2 () Int)
(declare-fun lam19n0 () Int)
(declare-fun lam19n1 () Int)
(declare-fun FV_arg1_4 () Int)
(declare-fun FV_arg2_4 () Int)
(declare-fun FV_arg3_4 () Int)
(declare-fun FV_arg4_4 () Int)
(declare-fun FV_undef35_4 () Int)
(declare-fun FV_undef31_4 () Int)
(declare-fun FV_undef40_4 () Int)
(declare-fun FV_undef36_4 () Int)
(declare-fun FV_undef41_4 () Int)
(declare-fun FV_undef45_4 () Int)
(assert ( and ( <= ( - 1 ) Nl4arg11 ) ( <= Nl4arg11 1 ) ( <= ( - 1 ) Nl4arg21 ) ( <= Nl4arg21 1 ) ( <= ( - 1 ) Nl4arg31 ) ( <= Nl4arg31 1 ) ( <= ( - 1 ) Nl4arg41 ) ( <= Nl4arg41 1 ) ))
(assert ( or ( and ( >= lam0n0 0 ) ( >= lam0n1 0 ) ( >= lam0n2 0 ) ( >= lam0n3 0 ) ( >= lam0n4 0 ) ( >= lam0n5 0 ) ( > ( + ( * 1 lam0n0 ) ( * 2 lam0n2 ) ( * 3 lam0n3 ) ( * UndefCntr0_CT lam0n4 ) ( * Nl4CT1 lam0n5 ) ( - 1 ) ) 0 ) ( = ( + ( * ( - 1 ) lam0n2 ) ( * ( - 1 ) lam0n3 ) ( * UndefCntr0_arg1 lam0n4 ) ( * Nl4arg11 lam0n5 ) ) 0 ) ( = ( + ( * UndefCntr0_arg2 lam0n4 ) ( * Nl4arg21 lam0n5 ) ) 0 ) ( = ( + ( * UndefCntr0_arg3 lam0n4 ) ( * Nl4arg31 lam0n5 ) ) 0 ) ( = ( + ( * UndefCntr0_arg4 lam0n4 ) ( * Nl4arg41 lam0n5 ) ) 0 ) ( = ( + ( * ( - 1 ) lam0n1 ) ( * 1 lam0n2 ) ( * UndefCntr0_undef31 lam0n4 ) ) 0 ) ( = ( * UndefCntr0_undef32 lam0n4 ) 0 ) ( = ( * UndefCntr0_undef33 lam0n4 ) 0 ) ( = ( * UndefCntr0_undef34 lam0n4 ) 0 ) ( = ( + ( * ( - 1 ) lam0n0 ) ( * UndefCntr0_undef35 lam0n4 ) ) 0 ) ) ( and ( >= lam1n0 0 ) ( >= lam1n1 0 ) ( >= lam1n2 0 ) ( >= lam1n3 0 ) ( >= lam1n4 0 ) ( >= lam1n5 0 ) ( > ( + ( * 1 lam1n0 ) ( * 2 lam1n2 ) ( * 3 lam1n3 ) ( * UndefCntr0_CT lam1n4 ) ( * Nl4CT1 lam1n5 ) ( - 1 ( + ( + ( + ( + Nl4CT1 ( * Nl4arg11 0 ) ) ( * Nl4arg21 0 ) ) ( * Nl4arg31 0 ) ) ( * Nl4arg41 0 ) ) ) ) 0 ) ( = ( + ( * ( - 1 ) lam1n2 ) ( * ( - 1 ) lam1n3 ) ( * UndefCntr0_arg1 lam1n4 ) ( * Nl4arg11 lam1n5 ) ) 0 ) ( = ( + ( * UndefCntr0_arg2 lam1n4 ) ( * Nl4arg21 lam1n5 ) ) 0 ) ( = ( + ( * UndefCntr0_arg3 lam1n4 ) ( * Nl4arg31 lam1n5 ) ) 0 ) ( = ( + ( * UndefCntr0_arg4 lam1n4 ) ( * Nl4arg41 lam1n5 ) ) 0 ) ( = ( + ( * ( - 1 ) lam1n1 ) ( * 1 lam1n2 ) ( * UndefCntr0_undef31 lam1n4 ) ( - ( + 0 ( * Nl4arg11 1 ) ) ) ) 0 ) ( = ( + ( * UndefCntr0_undef32 lam1n4 ) ( - ( + 0 ( * Nl4arg21 1 ) ) ) ) 0 ) ( = ( + ( * UndefCntr0_undef33 lam1n4 ) ( - ( + 0 ( * Nl4arg31 1 ) ) ) ) 0 ) ( = ( + ( * UndefCntr0_undef34 lam1n4 ) ( - ( + 0 ( * Nl4arg41 1 ) ) ) ) 0 ) ( = ( + ( * ( - 1 ) lam1n0 ) ( * UndefCntr0_undef35 lam1n4 ) ) 0 ) ) ))
(assert ( or ( and ( >= lam2n0 0 ) ( >= lam2n1 0 ) ( >= lam2n2 0 ) ( >= lam2n3 0 ) ( >= lam2n4 0 ) ( >= lam2n5 0 ) ( > ( + ( * 1 lam2n0 ) ( * 2 lam2n2 ) ( * 3 lam2n3 ) ( * UndefCntr1_CT lam2n4 ) ( * Nl4CT1 lam2n5 ) ( - 1 ) ) 0 ) ( = ( + ( * ( - 1 ) lam2n2 ) ( * ( - 1 ) lam2n3 ) ( * UndefCntr1_arg1 lam2n4 ) ( * Nl4arg11 lam2n5 ) ) 0 ) ( = ( + ( * UndefCntr1_arg2 lam2n4 ) ( * Nl4arg21 lam2n5 ) ) 0 ) ( = ( + ( * UndefCntr1_arg3 lam2n4 ) ( * Nl4arg31 lam2n5 ) ) 0 ) ( = ( + ( * UndefCntr1_arg4 lam2n4 ) ( * Nl4arg41 lam2n5 ) ) 0 ) ( = ( + ( * ( - 1 ) lam2n1 ) ( * 1 lam2n2 ) ( * UndefCntr1_undef36 lam2n4 ) ) 0 ) ( = ( * UndefCntr1_undef37 lam2n4 ) 0 ) ( = ( * UndefCntr1_undef38 lam2n4 ) 0 ) ( = ( * UndefCntr1_undef39 lam2n4 ) 0 ) ( = ( + ( * ( - 1 ) lam2n0 ) ( * UndefCntr1_undef40 lam2n4 ) ) 0 ) ) ( and ( >= lam3n0 0 ) ( >= lam3n1 0 ) ( >= lam3n2 0 ) ( >= lam3n3 0 ) ( >= lam3n4 0 ) ( >= lam3n5 0 ) ( > ( + ( * 1 lam3n0 ) ( * 2 lam3n2 ) ( * 3 lam3n3 ) ( * UndefCntr1_CT lam3n4 ) ( * Nl4CT1 lam3n5 ) ( - 1 ( + ( + ( + ( + Nl4CT1 ( * Nl4arg11 0 ) ) ( * Nl4arg21 0 ) ) ( * Nl4arg31 0 ) ) ( * Nl4arg41 0 ) ) ) ) 0 ) ( = ( + ( * ( - 1 ) lam3n2 ) ( * ( - 1 ) lam3n3 ) ( * UndefCntr1_arg1 lam3n4 ) ( * Nl4arg11 lam3n5 ) ) 0 ) ( = ( + ( * UndefCntr1_arg2 lam3n4 ) ( * Nl4arg21 lam3n5 ) ) 0 ) ( = ( + ( * UndefCntr1_arg3 lam3n4 ) ( * Nl4arg31 lam3n5 ) ) 0 ) ( = ( + ( * UndefCntr1_arg4 lam3n4 ) ( * Nl4arg41 lam3n5 ) ) 0 ) ( = ( + ( * ( - 1 ) lam3n1 ) ( * 1 lam3n2 ) ( * UndefCntr1_undef36 lam3n4 ) ( - ( + 0 ( * Nl4arg11 1 ) ) ) ) 0 ) ( = ( + ( * UndefCntr1_undef37 lam3n4 ) ( - ( + 0 ( * Nl4arg21 1 ) ) ) ) 0 ) ( = ( + ( * UndefCntr1_undef38 lam3n4 ) ( - ( + 0 ( * Nl4arg31 1 ) ) ) ) 0 ) ( = ( + ( * UndefCntr1_undef39 lam3n4 ) ( - ( + 0 ( * Nl4arg41 1 ) ) ) ) 0 ) ( = ( + ( * ( - 1 ) lam3n0 ) ( * UndefCntr1_undef40 lam3n4 ) ) 0 ) ) ))
(assert ( or ( and ( >= lam4n0 0 ) ( >= lam4n1 0 ) ( >= lam4n2 0 ) ( >= lam4n3 0 ) ( >= lam4n4 0 ) ( >= lam4n5 0 ) ( > ( + ( * 1 lam4n0 ) ( * 1 lam4n1 ) ( * 3 lam4n3 ) ( * UndefCntr2_CT lam4n4 ) ( * Nl4CT1 lam4n5 ) ( - 1 ) ) 0 ) ( = ( + ( * ( - 1 ) lam4n2 ) ( * ( - 1 ) lam4n3 ) ( * UndefCntr2_arg1 lam4n4 ) ( * Nl4arg11 lam4n5 ) ) 0 ) ( = ( + ( * UndefCntr2_arg2 lam4n4 ) ( * Nl4arg21 lam4n5 ) ) 0 ) ( = ( + ( * UndefCntr2_arg3 lam4n4 ) ( * Nl4arg31 lam4n5 ) ) 0 ) ( = ( + ( * UndefCntr2_arg4 lam4n4 ) ( * Nl4arg41 lam4n5 ) ) 0 ) ( = ( + ( * ( - 1 ) lam4n0 ) ( * 1 lam4n2 ) ( * UndefCntr2_undef41 lam4n4 ) ) 0 ) ( = ( * UndefCntr2_undef42 lam4n4 ) 0 ) ( = ( * UndefCntr2_undef43 lam4n4 ) 0 ) ( = ( * UndefCntr2_undef44 lam4n4 ) 0 ) ( = ( + ( * ( - 1 ) lam4n1 ) ( * UndefCntr2_undef45 lam4n4 ) ) 0 ) ) ( and ( >= lam5n0 0 ) ( >= lam5n1 0 ) ( >= lam5n2 0 ) ( >= lam5n3 0 ) ( >= lam5n4 0 ) ( >= lam5n5 0 ) ( > ( + ( * 1 lam5n0 ) ( * 1 lam5n1 ) ( * 3 lam5n3 ) ( * UndefCntr2_CT lam5n4 ) ( * Nl4CT1 lam5n5 ) ( - 1 ( + ( + ( + ( + Nl4CT1 ( * Nl4arg11 0 ) ) ( * Nl4arg21 0 ) ) ( * Nl4arg31 0 ) ) ( * Nl4arg41 0 ) ) ) ) 0 ) ( = ( + ( * ( - 1 ) lam5n2 ) ( * ( - 1 ) lam5n3 ) ( * UndefCntr2_arg1 lam5n4 ) ( * Nl4arg11 lam5n5 ) ) 0 ) ( = ( + ( * UndefCntr2_arg2 lam5n4 ) ( * Nl4arg21 lam5n5 ) ) 0 ) ( = ( + ( * UndefCntr2_arg3 lam5n4 ) ( * Nl4arg31 lam5n5 ) ) 0 ) ( = ( + ( * UndefCntr2_arg4 lam5n4 ) ( * Nl4arg41 lam5n5 ) ) 0 ) ( = ( + ( * ( - 1 ) lam5n0 ) ( * 1 lam5n2 ) ( * UndefCntr2_undef41 lam5n4 ) ( - ( + 0 ( * Nl4arg11 1 ) ) ) ) 0 ) ( = ( + ( * UndefCntr2_undef42 lam5n4 ) ( - ( + 0 ( * Nl4arg21 1 ) ) ) ) 0 ) ( = ( + ( * UndefCntr2_undef43 lam5n4 ) ( - ( + 0 ( * Nl4arg31 1 ) ) ) ) 0 ) ( = ( + ( * UndefCntr2_undef44 lam5n4 ) ( - ( + 0 ( * Nl4arg41 1 ) ) ) ) 0 ) ( = ( + ( * ( - 1 ) lam5n1 ) ( * UndefCntr2_undef45 lam5n4 ) ) 0 ) ) ))
(assert ( <= ( + Nl4CT1 ( * Nl4arg11 FV_arg1_3 ) ( * Nl4arg21 FV_arg2_3 ) ( * Nl4arg31 FV_arg3_3 ) ( * Nl4arg41 FV_arg4_3 ) ) 0 ))
(assert ( or ( not ( = UndefCntr0_arg1 0 ) ) ( not ( = UndefCntr0_arg2 0 ) ) ( not ( = UndefCntr0_arg3 0 ) ) ( not ( = UndefCntr0_arg4 0 ) ) ( not ( = UndefCntr0_undef31 0 ) ) ( not ( = UndefCntr0_undef32 0 ) ) ( not ( = UndefCntr0_undef33 0 ) ) ( not ( = UndefCntr0_undef34 0 ) ) ( not ( = UndefCntr0_undef35 0 ) ) ( = UndefCntr0_CT 0 ) ))
(assert ( or ( and ( = UndefCntr0_arg1 0 ) ( = UndefCntr0_arg2 0 ) ( = UndefCntr0_arg3 0 ) ( = UndefCntr0_arg4 0 ) ) ( or ( not ( = UndefCntr0_undef31 0 ) ) ( not ( = UndefCntr0_undef32 0 ) ) ( not ( = UndefCntr0_undef33 0 ) ) ( not ( = UndefCntr0_undef34 0 ) ) ( not ( = UndefCntr0_undef35 0 ) ) ) ))
(assert ( or ( not ( = UndefCntr1_arg1 0 ) ) ( not ( = UndefCntr1_arg2 0 ) ) ( not ( = UndefCntr1_arg3 0 ) ) ( not ( = UndefCntr1_arg4 0 ) ) ( not ( = UndefCntr1_undef36 0 ) ) ( not ( = UndefCntr1_undef37 0 ) ) ( not ( = UndefCntr1_undef38 0 ) ) ( not ( = UndefCntr1_undef39 0 ) ) ( not ( = UndefCntr1_undef40 0 ) ) ( = UndefCntr1_CT 0 ) ))
(assert ( or ( and ( = UndefCntr1_arg1 0 ) ( = UndefCntr1_arg2 0 ) ( = UndefCntr1_arg3 0 ) ( = UndefCntr1_arg4 0 ) ) ( or ( not ( = UndefCntr1_undef36 0 ) ) ( not ( = UndefCntr1_undef37 0 ) ) ( not ( = UndefCntr1_undef38 0 ) ) ( not ( = UndefCntr1_undef39 0 ) ) ( not ( = UndefCntr1_undef40 0 ) ) ) ))
(assert ( or ( not ( = UndefCntr2_arg1 0 ) ) ( not ( = UndefCntr2_arg2 0 ) ) ( not ( = UndefCntr2_arg3 0 ) ) ( not ( = UndefCntr2_arg4 0 ) ) ( not ( = UndefCntr2_undef41 0 ) ) ( not ( = UndefCntr2_undef42 0 ) ) ( not ( = UndefCntr2_undef43 0 ) ) ( not ( = UndefCntr2_undef44 0 ) ) ( not ( = UndefCntr2_undef45 0 ) ) ( = UndefCntr2_CT 0 ) ))
(assert ( or ( and ( = UndefCntr2_arg1 0 ) ( = UndefCntr2_arg2 0 ) ( = UndefCntr2_arg3 0 ) ( = UndefCntr2_arg4 0 ) ) ( or ( not ( = UndefCntr2_undef41 0 ) ) ( not ( = UndefCntr2_undef42 0 ) ) ( not ( = UndefCntr2_undef43 0 ) ) ( not ( = UndefCntr2_undef44 0 ) ) ( not ( = UndefCntr2_undef45 0 ) ) ) ))
(assert ( or ( and ( >= lam7n0 0 ) ( >= lam7n1 0 ) ( >= lam7n2 0 ) ( > ( + ( * 1 lam7n0 ) ( * 3 lam7n1 ) ( * Nl4CT1 lam7n2 ) ( - 1 ) ) 0 ) ( = ( + ( * ( - 1 ) lam7n1 ) ( * Nl4arg11 lam7n2 ) ) 0 ) ( = ( * Nl4arg21 lam7n2 ) 0 ) ( = ( * Nl4arg31 lam7n2 ) 0 ) ( = ( * Nl4arg41 lam7n2 ) 0 ) ( = ( * ( - 1 ) lam7n0 ) 0 ) ) ( and ( and ( >= lam8n0 0 ) ( >= lam8n1 0 ) ( >= lam8n2 0 ) ( > ( + ( * 1 lam8n0 ) ( * 3 lam8n1 ) ( * Nl4CT1 lam8n2 ) ( - 1 ( + 0 ( * ( - 1 ) UndefDef0undef31_CT ) ) ) ) 0 ) ( = ( + ( * ( - 1 ) lam8n1 ) ( * Nl4arg11 lam8n2 ) ( - ( * UndefDef0undef31_arg1 ( - 1 ) ) ) ) 0 ) ( = ( + ( * Nl4arg21 lam8n2 ) ( - ( * UndefDef0undef31_arg2 ( - 1 ) ) ) ) 0 ) ( = ( + ( * Nl4arg31 lam8n2 ) ( - ( * UndefDef0undef31_arg3 ( - 1 ) ) ) ) 0 ) ( = ( + ( * Nl4arg41 lam8n2 ) ( - ( * UndefDef0undef31_arg4 ( - 1 ) ) ) ) 0 ) ( = ( * ( - 1 ) lam8n0 ) 0 ) ) ( and ( >= lam9n0 0 ) ( >= lam9n1 0 ) ( >= lam9n2 0 ) ( > ( + ( * 1 lam9n0 ) ( * 3 lam9n1 ) ( * Nl4CT1 lam9n2 ) ( - 1 ( + ( + 2 0 ) ( * 1 UndefDef0undef31_CT ) ) ) ) 0 ) ( = ( + ( * ( - 1 ) lam9n1 ) ( * Nl4arg11 lam9n2 ) ( - ( + ( - 1 ) ( * UndefDef0undef31_arg1 1 ) ) ) ) 0 ) ( = ( + ( * Nl4arg21 lam9n2 ) ( - ( * UndefDef0undef31_arg2 1 ) ) ) 0 ) ( = ( + ( * Nl4arg31 lam9n2 ) ( - ( * UndefDef0undef31_arg3 1 ) ) ) 0 ) ( = ( + ( * Nl4arg41 lam9n2 ) ( - ( * UndefDef0undef31_arg4 1 ) ) ) 0 ) ( = ( * ( - 1 ) lam9n0 ) 0 ) ) ( or ( = UndefCntr0_undef31 0 ) ( and ( >= lam10n0 0 ) ( >= lam10n1 0 ) ( >= lam10n2 0 ) ( > ( + ( * 1 lam10n0 ) ( * 3 lam10n1 ) ( * Nl4CT1 lam10n2 ) ( - 1 ( + ( + ( + ( + ( + ( + ( + ( + ( + UndefCntr0_CT 0 ) 0 ) 0 ) 0 ) ( * UndefCntr0_undef31 UndefDef0undef31_CT ) ) 0 ) 0 ) 0 ) 0 ) ) ) 0 ) ( = ( + ( * ( - 1 ) lam10n1 ) ( * Nl4arg11 lam10n2 ) ( - ( + UndefCntr0_arg1 ( * UndefDef0undef31_arg1 UndefCntr0_undef31 ) ) ) ) 0 ) ( = ( + ( * Nl4arg21 lam10n2 ) ( - ( + UndefCntr0_arg2 ( * UndefDef0undef31_arg2 UndefCntr0_undef31 ) ) ) ) 0 ) ( = ( + ( * Nl4arg31 lam10n2 ) ( - ( + UndefCntr0_arg3 ( * UndefDef0undef31_arg3 UndefCntr0_undef31 ) ) ) ) 0 ) ( = ( + ( * Nl4arg41 lam10n2 ) ( - ( + UndefCntr0_arg4 ( * UndefDef0undef31_arg4 UndefCntr0_undef31 ) ) ) ) 0 ) ( = ( - UndefCntr0_undef32 ) 0 ) ( = ( - UndefCntr0_undef33 ) 0 ) ( = ( - UndefCntr0_undef34 ) 0 ) ( = ( + ( * ( - 1 ) lam10n0 ) ( - UndefCntr0_undef35 ) ) 0 ) ) ) ) ))
(assert ( or ( and ( >= lam11n0 0 ) ( >= lam11n1 0 ) ( >= lam11n2 0 ) ( > ( + ( * 1 lam11n0 ) ( * 3 lam11n1 ) ( * Nl4CT1 lam11n2 ) ( - 1 ) ) 0 ) ( = ( + ( * ( - 1 ) lam11n1 ) ( * Nl4arg11 lam11n2 ) ) 0 ) ( = ( * Nl4arg21 lam11n2 ) 0 ) ( = ( * Nl4arg31 lam11n2 ) 0 ) ( = ( * Nl4arg41 lam11n2 ) 0 ) ( = ( * ( - 1 ) lam11n0 ) 0 ) ) ( and ( and ( >= lam12n0 0 ) ( >= lam12n1 0 ) ( >= lam12n2 0 ) ( > ( + ( * 1 lam12n0 ) ( * 3 lam12n1 ) ( * Nl4CT1 lam12n2 ) ( - 1 ( + 0 ( * ( - 1 ) UndefDef1undef36_CT ) ) ) ) 0 ) ( = ( + ( * ( - 1 ) lam12n1 ) ( * Nl4arg11 lam12n2 ) ( - ( * UndefDef1undef36_arg1 ( - 1 ) ) ) ) 0 ) ( = ( + ( * Nl4arg21 lam12n2 ) ( - ( * UndefDef1undef36_arg2 ( - 1 ) ) ) ) 0 ) ( = ( + ( * Nl4arg31 lam12n2 ) ( - ( * UndefDef1undef36_arg3 ( - 1 ) ) ) ) 0 ) ( = ( + ( * Nl4arg41 lam12n2 ) ( - ( * UndefDef1undef36_arg4 ( - 1 ) ) ) ) 0 ) ( = ( * ( - 1 ) lam12n0 ) 0 ) ) ( and ( >= lam13n0 0 ) ( >= lam13n1 0 ) ( >= lam13n2 0 ) ( > ( + ( * 1 lam13n0 ) ( * 3 lam13n1 ) ( * Nl4CT1 lam13n2 ) ( - 1 ( + ( + 2 0 ) ( * 1 UndefDef1undef36_CT ) ) ) ) 0 ) ( = ( + ( * ( - 1 ) lam13n1 ) ( * Nl4arg11 lam13n2 ) ( - ( + ( - 1 ) ( * UndefDef1undef36_arg1 1 ) ) ) ) 0 ) ( = ( + ( * Nl4arg21 lam13n2 ) ( - ( * UndefDef1undef36_arg2 1 ) ) ) 0 ) ( = ( + ( * Nl4arg31 lam13n2 ) ( - ( * UndefDef1undef36_arg3 1 ) ) ) 0 ) ( = ( + ( * Nl4arg41 lam13n2 ) ( - ( * UndefDef1undef36_arg4 1 ) ) ) 0 ) ( = ( * ( - 1 ) lam13n0 ) 0 ) ) ( or ( = UndefCntr1_undef36 0 ) ( and ( >= lam14n0 0 ) ( >= lam14n1 0 ) ( >= lam14n2 0 ) ( > ( + ( * 1 lam14n0 ) ( * 3 lam14n1 ) ( * Nl4CT1 lam14n2 ) ( - 1 ( + ( + ( + ( + ( + ( + ( + ( + ( + UndefCntr1_CT 0 ) 0 ) 0 ) 0 ) ( * UndefCntr1_undef36 UndefDef1undef36_CT ) ) 0 ) 0 ) 0 ) 0 ) ) ) 0 ) ( = ( + ( * ( - 1 ) lam14n1 ) ( * Nl4arg11 lam14n2 ) ( - ( + UndefCntr1_arg1 ( * UndefDef1undef36_arg1 UndefCntr1_undef36 ) ) ) ) 0 ) ( = ( + ( * Nl4arg21 lam14n2 ) ( - ( + UndefCntr1_arg2 ( * UndefDef1undef36_arg2 UndefCntr1_undef36 ) ) ) ) 0 ) ( = ( + ( * Nl4arg31 lam14n2 ) ( - ( + UndefCntr1_arg3 ( * UndefDef1undef36_arg3 UndefCntr1_undef36 ) ) ) ) 0 ) ( = ( + ( * Nl4arg41 lam14n2 ) ( - ( + UndefCntr1_arg4 ( * UndefDef1undef36_arg4 UndefCntr1_undef36 ) ) ) ) 0 ) ( = ( - UndefCntr1_undef37 ) 0 ) ( = ( - UndefCntr1_undef38 ) 0 ) ( = ( - UndefCntr1_undef39 ) 0 ) ( = ( + ( * ( - 1 ) lam14n0 ) ( - UndefCntr1_undef40 ) ) 0 ) ) ) ) ))
(assert ( or ( and ( >= lam15n0 0 ) ( >= lam15n1 0 ) ( >= lam15n2 0 ) ( > ( + ( * 1 lam15n0 ) ( * 3 lam15n1 ) ( * Nl4CT1 lam15n2 ) ( - 1 ) ) 0 ) ( = ( + ( * ( - 1 ) lam15n1 ) ( * Nl4arg11 lam15n2 ) ) 0 ) ( = ( * Nl4arg21 lam15n2 ) 0 ) ( = ( * Nl4arg31 lam15n2 ) 0 ) ( = ( * Nl4arg41 lam15n2 ) 0 ) ( = ( * ( - 1 ) lam15n0 ) 0 ) ) ( and ( and ( >= lam16n0 0 ) ( >= lam16n1 0 ) ( >= lam16n2 0 ) ( > ( + ( * 1 lam16n0 ) ( * 3 lam16n1 ) ( * Nl4CT1 lam16n2 ) ( - 1 ( + 1 ( * ( - 1 ) UndefDef2undef41_CT ) ) ) ) 0 ) ( = ( + ( * ( - 1 ) lam16n1 ) ( * Nl4arg11 lam16n2 ) ( - ( * UndefDef2undef41_arg1 ( - 1 ) ) ) ) 0 ) ( = ( + ( * Nl4arg21 lam16n2 ) ( - ( * UndefDef2undef41_arg2 ( - 1 ) ) ) ) 0 ) ( = ( + ( * Nl4arg31 lam16n2 ) ( - ( * UndefDef2undef41_arg3 ( - 1 ) ) ) ) 0 ) ( = ( + ( * Nl4arg41 lam16n2 ) ( - ( * UndefDef2undef41_arg4 ( - 1 ) ) ) ) 0 ) ( = ( * ( - 1 ) lam16n0 ) 0 ) ) ( and ( >= lam17n0 0 ) ( >= lam17n1 0 ) ( >= lam17n2 0 ) ( > ( + ( * 1 lam17n0 ) ( * 3 lam17n1 ) ( * Nl4CT1 lam17n2 ) ( - 1 ( + ( + 0 0 ) ( * 1 UndefDef2undef41_CT ) ) ) ) 0 ) ( = ( + ( * ( - 1 ) lam17n1 ) ( * Nl4arg11 lam17n2 ) ( - ( + ( - 1 ) ( * UndefDef2undef41_arg1 1 ) ) ) ) 0 ) ( = ( + ( * Nl4arg21 lam17n2 ) ( - ( * UndefDef2undef41_arg2 1 ) ) ) 0 ) ( = ( + ( * Nl4arg31 lam17n2 ) ( - ( * UndefDef2undef41_arg3 1 ) ) ) 0 ) ( = ( + ( * Nl4arg41 lam17n2 ) ( - ( * UndefDef2undef41_arg4 1 ) ) ) 0 ) ( = ( * ( - 1 ) lam17n0 ) 0 ) ) ( or ( = UndefCntr2_undef41 0 ) ( and ( >= lam18n0 0 ) ( >= lam18n1 0 ) ( >= lam18n2 0 ) ( > ( + ( * 1 lam18n0 ) ( * 3 lam18n1 ) ( * Nl4CT1 lam18n2 ) ( - 1 ( + ( + ( + ( + ( + ( + ( + ( + ( + UndefCntr2_CT 0 ) 0 ) 0 ) 0 ) ( * UndefCntr2_undef41 UndefDef2undef41_CT ) ) 0 ) 0 ) 0 ) 0 ) ) ) 0 ) ( = ( + ( * ( - 1 ) lam18n1 ) ( * Nl4arg11 lam18n2 ) ( - ( + UndefCntr2_arg1 ( * UndefDef2undef41_arg1 UndefCntr2_undef41 ) ) ) ) 0 ) ( = ( + ( * Nl4arg21 lam18n2 ) ( - ( + UndefCntr2_arg2 ( * UndefDef2undef41_arg2 UndefCntr2_undef41 ) ) ) ) 0 ) ( = ( + ( * Nl4arg31 lam18n2 ) ( - ( + UndefCntr2_arg3 ( * UndefDef2undef41_arg3 UndefCntr2_undef41 ) ) ) ) 0 ) ( = ( + ( * Nl4arg41 lam18n2 ) ( - ( + UndefCntr2_arg4 ( * UndefDef2undef41_arg4 UndefCntr2_undef41 ) ) ) ) 0 ) ( = ( - UndefCntr2_undef42 ) 0 ) ( = ( - UndefCntr2_undef43 ) 0 ) ( = ( - UndefCntr2_undef44 ) 0 ) ( = ( + ( * ( - 1 ) lam18n0 ) ( - UndefCntr2_undef45 ) ) 0 ) ) ) ) ))
(assert ( or ( = UndefCntr0_undef35 0 ) ( and ( and ( = UndefCntr0_arg1 0 ) ( = UndefCntr0_arg2 0 ) ( = UndefCntr0_arg3 0 ) ( = UndefCntr0_arg4 0 ) ( = UndefCntr0_undef31 0 ) ( = UndefCntr0_undef32 0 ) ( = UndefCntr0_undef33 0 ) ( = UndefCntr0_undef34 0 ) ) ( or ( and ( <= ( + 1 ( * ( - 1 ) FV_undef35_0 ) ) 0 ) ( <= ( + UndefCntr0_CT ( * UndefCntr0_undef35 FV_undef35_0 ) ( * UndefCntr0_arg1 FV_arg1_0 ) ( * UndefCntr0_arg2 FV_arg2_0 ) ( * UndefCntr0_arg3 FV_arg3_0 ) ( * UndefCntr0_arg4 FV_arg4_0 ) ( * UndefCntr0_undef31 FV_undef31_0 ) ( * UndefCntr0_undef32 FV_undef32_0 ) ( * UndefCntr0_undef33 FV_undef33_0 ) ( * UndefCntr0_undef34 FV_undef34_0 ) ) 0 ) ) ( and ( <= ( + 1 ( * ( - 1 ) FV_undef35_0 ) ) 0 ) ( <= ( + UndefCntr0_CT ( * UndefCntr0_undef35 FV_undef35_0 ) ( * UndefCntr0_arg1 FV_arg1_0 ) ( * UndefCntr0_arg2 FV_arg2_0 ) ( * UndefCntr0_arg3 FV_arg3_0 ) ( * UndefCntr0_arg4 FV_arg4_0 ) ( * UndefCntr0_undef31 FV_undef31_0 ) ( * UndefCntr0_undef32 FV_undef32_0 ) ( * UndefCntr0_undef33 FV_undef33_0 ) ( * UndefCntr0_undef34 FV_undef34_0 ) ) 0 ) ) ) ) ))
(assert ( or ( = UndefCntr1_undef40 0 ) ( and ( and ( = UndefCntr1_arg1 0 ) ( = UndefCntr1_arg2 0 ) ( = UndefCntr1_arg3 0 ) ( = UndefCntr1_arg4 0 ) ( = UndefCntr1_undef36 0 ) ( = UndefCntr1_undef37 0 ) ( = UndefCntr1_undef38 0 ) ( = UndefCntr1_undef39 0 ) ) ( or ( and ( <= ( + 1 ( * ( - 1 ) FV_undef40_1 ) ) 0 ) ( <= ( + UndefCntr1_CT ( * UndefCntr1_undef40 FV_undef40_1 ) ( * UndefCntr1_arg1 FV_arg1_1 ) ( * UndefCntr1_arg2 FV_arg2_1 ) ( * UndefCntr1_arg3 FV_arg3_1 ) ( * UndefCntr1_arg4 FV_arg4_1 ) ( * UndefCntr1_undef36 FV_undef36_1 ) ( * UndefCntr1_undef37 FV_undef37_1 ) ( * UndefCntr1_undef38 FV_undef38_1 ) ( * UndefCntr1_undef39 FV_undef39_1 ) ) 0 ) ) ( and ( <= ( + 1 ( * ( - 1 ) FV_undef40_1 ) ) 0 ) ( <= ( + UndefCntr1_CT ( * UndefCntr1_undef40 FV_undef40_1 ) ( * UndefCntr1_arg1 FV_arg1_1 ) ( * UndefCntr1_arg2 FV_arg2_1 ) ( * UndefCntr1_arg3 FV_arg3_1 ) ( * UndefCntr1_arg4 FV_arg4_1 ) ( * UndefCntr1_undef36 FV_undef36_1 ) ( * UndefCntr1_undef37 FV_undef37_1 ) ( * UndefCntr1_undef38 FV_undef38_1 ) ( * UndefCntr1_undef39 FV_undef39_1 ) ) 0 ) ) ) ) ))
(assert ( or ( = UndefCntr2_undef45 0 ) ( and ( and ( = UndefCntr2_arg1 0 ) ( = UndefCntr2_arg2 0 ) ( = UndefCntr2_arg3 0 ) ( = UndefCntr2_arg4 0 ) ( = UndefCntr2_undef41 0 ) ( = UndefCntr2_undef42 0 ) ( = UndefCntr2_undef43 0 ) ( = UndefCntr2_undef44 0 ) ) ( or ( and ( <= ( + 1 ( * ( - 1 ) FV_undef45_2 ) ) 0 ) ( <= ( + UndefCntr2_CT ( * UndefCntr2_undef45 FV_undef45_2 ) ( * UndefCntr2_arg1 FV_arg1_2 ) ( * UndefCntr2_arg2 FV_arg2_2 ) ( * UndefCntr2_arg3 FV_arg3_2 ) ( * UndefCntr2_arg4 FV_arg4_2 ) ( * UndefCntr2_undef41 FV_undef41_2 ) ( * UndefCntr2_undef42 FV_undef42_2 ) ( * UndefCntr2_undef43 FV_undef43_2 ) ( * UndefCntr2_undef44 FV_undef44_2 ) ) 0 ) ) ( and ( <= ( + 1 ( * ( - 1 ) FV_undef45_2 ) ) 0 ) ( <= ( + UndefCntr2_CT ( * UndefCntr2_undef45 FV_undef45_2 ) ( * UndefCntr2_arg1 FV_arg1_2 ) ( * UndefCntr2_arg2 FV_arg2_2 ) ( * UndefCntr2_arg3 FV_arg3_2 ) ( * UndefCntr2_arg4 FV_arg4_2 ) ( * UndefCntr2_undef41 FV_undef41_2 ) ( * UndefCntr2_undef42 FV_undef42_2 ) ( * UndefCntr2_undef43 FV_undef43_2 ) ( * UndefCntr2_undef44 FV_undef44_2 ) ) 0 ) ) ) ) ))
(assert ( and ( >= lam19n0 0 ) ( >= lam19n1 0 ) ( > ( + ( * ( - 2 ) lam19n0 ) ( * Nl4CT1 lam19n1 ) ( - 1 ) ) 0 ) ( = ( + ( * 1 lam19n0 ) ( * Nl4arg11 lam19n1 ) ) 0 ) ( = ( * Nl4arg21 lam19n1 ) 0 ) ( = ( * Nl4arg31 lam19n1 ) 0 ) ( = ( * Nl4arg41 lam19n1 ) 0 ) ))
(assert ( and ( <= ( + Nl4CT1 ( * Nl4arg11 FV_arg1_4 ) ( * Nl4arg21 FV_arg2_4 ) ( * Nl4arg31 FV_arg3_4 ) ( * Nl4arg41 FV_arg4_4 ) ) 0 ) ( or ( and ( <= ( + 1 ( * ( - 1 ) FV_undef35_4 ) ) 0 ) ( <= ( * ( - 1 ) FV_undef31_4 ) 0 ) ( <= ( + 2 FV_undef31_4 ( * ( - 1 ) FV_arg1_4 ) ) 0 ) ( <= ( + 3 ( * ( - 1 ) FV_arg1_4 ) ) 0 ) ) ( and ( <= ( + 1 ( * ( - 1 ) FV_undef40_4 ) ) 0 ) ( <= ( * ( - 1 ) FV_undef36_4 ) 0 ) ( <= ( + 2 ( * ( - 1 ) FV_arg1_4 ) FV_undef36_4 ) 0 ) ( <= ( + 3 ( * ( - 1 ) FV_arg1_4 ) ) 0 ) ) ( and ( <= ( + 1 ( * ( - 1 ) FV_undef41_4 ) ) 0 ) ( <= ( + 1 ( * ( - 1 ) FV_undef45_4 ) ) 0 ) ( <= ( + ( * ( - 1 ) FV_arg1_4 ) FV_undef41_4 ) 0 ) ( <= ( + 3 ( * ( - 1 ) FV_arg1_4 ) ) 0 ) ) ) ))
(check-sat)
(exit)
